669119
669119
669119
668816
668816
668816
666684
665172
665172
665172
665172
659721
658999
647638
647638
647638
647638
645630
645630
638166
638166
638166
632188
629696
629696
629696
627852
626223
626223
626134
626134
626134
626134
624832
615077
615077
613140
613140
613140
611681
611681
610840
610840
610840
610840
610793
610793
603587
603587
603587
603587
603587
601416
592499
592499
592499
592499
590075
590075
590075
588284
588284
588284
586672
586586
582860
582860
582008
581879
579438
578734
578653
578653
575426
573950
570949
570949
570949
570201
569725
569725
567706
567706
567706
567706
561756
561756
561756
561756
561756
557931
557639
557639
557639
555730
555730
554922
554922
550657
550657
